nNurses = 136;
nHours = 34;
minHours = 5;
maxHours = 20;
maxConsec = 8;
maxPresence = 9;
demand = [29, 30, 29, 27, 26, 27, 23, 21, 16, 14, 10, 13, 9, 9, 12, 13, 16, 21, 22, 25, 27, 29, 33, 30, 32, 31, 29, 31, 36, 31, 28, 31, 30, 31];
